p cnf 7230 17
-6319 -6320 0
-5403 -6211 -6317 0
-6087 -6203 -6315 0
-6085 -6201 -6313 0
5403 -6318 0
6087 -6316 0
6085 -6314 0
6317 6318 0
6315 6316 0
6313 6314 0
6211 -6318 0
6203 -6316 0
6201 -6314 0
-6101 -6209 6320 0
6311 6312 0
6209 -6320 0
6101 -6320 0
